Route #1: 40 18 26 17 36 51 8 
Route #2: 1 15 11 31 6 45 
Route #3: 42 14 32 47 20 7 50 54 
Route #4: 27 48 49 44 21 3 19 34 12 53 25 
Route #5: 52 37 43 39 22 30 2 
Route #6: 46 5 41 38 9 10 24 55 
Route #7: 4 29 35 16 13 28 56 33 23 
cost 1375.37
execution_time 63.027
